15,5	0,0	10,2	12,2	0,0	0,0	0,0	0,0	0,0	17,2
10,3	5,2	0,0	7,9	10,9	0,0	0,0	10,3	0,0	0,0
0,0	0,0	8,0	0,0	7,8	10,3	0,0	0,0	13,1	0,0
10,6	0,0	18,8	0,0	0,0	0,0	11,6	0,0	0,0	0,0
0,0	12,9	0,0	16,2	12,7	0,0	0,0	18,8	0,0	0,0
0,0	12,2	14,5	0,0	18,3	8,9	0,0	0,0	5,1	0,0
0,0	9,6	0,0	11,1	0,0	0,0	12,7	0,0	0,0	12,7
15,7	0,0	16,6	0,0	0,0	0,0	0,0	0,0	0,0	7,6
0,0	12,1	0,0	7,9	19,9	0,0	0,0	10,5	0,0	0,0
0,0	0,0	12,8	0,0	0,0	5,3	16,7	0,0	0,0	15,4
									
4,1	4,8	3,1	3,3	2,6	4,9	3,3	4,0	4,4	2,7
